c "764469.clq"
p edge 120 464
e 1 5
e 1 6
e 1 9
e 1 11
e 1 29
e 1 31
e 1 63
e 1 89
e 2 5
e 2 7
e 2 8
e 2 10
e 2 12
e 2 15
e 2 16
e 2 24
e 2 36
e 2 41
e 2 42
e 2 46
e 2 47
e 2 52
e 2 61
e 2 63
e 2 80
e 2 86
e 2 91
e 2 94
e 2 100
e 2 102
e 2 109
e 3 5
e 3 6
e 3 18
e 3 28
e 4 5
e 4 6
e 4 7
e 4 10
e 4 13
e 4 19
e 4 20
e 4 28
e 4 35
e 4 36
e 4 48
e 4 51
e 4 55
e 4 58
e 4 59
e 4 60
e 4 79
e 4 81
e 4 82
e 4 110
e 4 117
e 5 6
e 5 7
e 5 8
e 5 9
e 5 10
e 5 11
e 5 12
e 5 14
e 5 17
e 5 18
e 5 21
e 5 23
e 5 25
e 5 32
e 5 40
e 5 44
e 5 46
e 5 52
e 5 57
e 5 61
e 5 68
e 5 72
e 5 78
e 5 83
e 5 85
e 5 95
e 5 119
e 6 7
e 6 8
e 6 9
e 6 14
e 6 17
e 6 18
e 6 20
e 6 24
e 6 25
e 6 33
e 6 38
e 6 39
e 6 43
e 6 54
e 6 61
e 6 62
e 6 67
e 6 78
e 6 91
e 6 96
e 6 113
e 7 8
e 7 11
e 7 12
e 7 17
e 7 19
e 7 25
e 7 31
e 7 41
e 7 42
e 7 50
e 7 74
e 7 88
e 7 100
e 7 101
e 7 119
e 8 9
e 8 15
e 8 17
e 8 21
e 8 22
e 8 28
e 8 38
e 8 40
e 8 53
e 8 65
e 8 66
e 8 103
e 8 106
e 8 107
e 8 116
e 9 10
e 9 11
e 9 13
e 9 15
e 9 16
e 9 20
e 9 26
e 9 29
e 9 46
e 9 57
e 9 62
e 9 89
e 9 111
e 10 12
e 10 13
e 10 14
e 10 21
e 10 25
e 10 29
e 10 30
e 10 35
e 10 37
e 10 39
e 10 42
e 10 44
e 10 45
e 10 57
e 10 66
e 10 71
e 10 76
e 10 77
e 10 92
e 10 102
e 11 13
e 11 19
e 11 26
e 11 27
e 11 33
e 11 43
e 11 49
e 11 64
e 11 69
e 11 86
e 11 94
e 11 105
e 11 117
e 12 15
e 12 30
e 12 38
e 12 76
e 13 14
e 13 16
e 13 21
e 13 23
e 13 27
e 13 28
e 13 29
e 13 36
e 13 43
e 13 49
e 13 56
e 13 65
e 13 67
e 13 68
e 13 75
e 13 86
e 13 88
e 13 95
e 13 103
e 13 107
e 13 114
e 14 19
e 14 23
e 14 27
e 14 30
e 14 32
e 14 35
e 14 40
e 14 42
e 14 49
e 14 50
e 14 53
e 14 74
e 14 108
e 14 117
e 15 16
e 15 24
e 15 31
e 15 32
e 15 33
e 15 36
e 15 44
e 15 45
e 15 81
e 15 95
e 15 118
e 15 120
e 16 26
e 16 44
e 16 72
e 16 76
e 16 93
e 16 97
e 16 99
e 16 117
e 16 118
e 17 18
e 17 20
e 17 22
e 17 23
e 17 30
e 17 37
e 17 38
e 17 41
e 17 51
e 17 61
e 17 63
e 17 65
e 17 91
e 17 101
e 17 102
e 18 31
e 18 59
e 18 69
e 18 73
e 19 64
e 20 22
e 20 34
e 20 52
e 20 54
e 20 57
e 20 75
e 20 77
e 20 83
e 21 22
e 21 24
e 21 37
e 21 41
e 21 48
e 21 51
e 21 52
e 21 63
e 21 67
e 21 68
e 21 77
e 21 85
e 21 96
e 21 99
e 21 100
e 21 113
e 21 118
e 22 68
e 22 116
e 23 50
e 23 54
e 23 60
e 23 97
e 24 26
e 24 27
e 24 34
e 24 39
e 24 45
e 24 47
e 24 55
e 24 64
e 24 70
e 24 98
e 24 116
e 24 120
e 25 32
e 25 73
e 25 90
e 26 33
e 26 115
e 27 34
e 27 35
e 27 66
e 27 79
e 27 110
e 27 120
e 28 34
e 28 39
e 28 59
e 28 92
e 28 104
e 28 105
e 29 56
e 29 58
e 29 71
e 29 101
e 30 48
e 30 78
e 31 37
e 31 55
e 31 60
e 31 62
e 31 90
e 31 93
e 32 82
e 32 87
e 32 103
e 32 106
e 33 45
e 34 50
e 34 78
e 35 43
e 35 56
e 35 74
e 35 83
e 35 87
e 35 92
e 36 94
e 36 99
e 38 40
e 38 48
e 38 70
e 38 73
e 38 80
e 38 111
e 39 73
e 39 106
e 39 113
e 40 97
e 41 46
e 41 74
e 41 81
e 41 94
e 41 96
e 41 102
e 41 109
e 41 114
e 41 118
e 42 53
e 42 62
e 42 79
e 42 110
e 42 115
e 43 84
e 44 47
e 44 69
e 44 79
e 44 108
e 45 51
e 45 87
e 45 101
e 46 47
e 46 49
e 46 67
e 46 80
e 46 86
e 47 72
e 47 89
e 47 90
e 48 54
e 48 64
e 48 71
e 48 82
e 48 84
e 48 91
e 48 95
e 49 59
e 49 98
e 50 88
e 51 55
e 52 53
e 52 58
e 52 66
e 52 92
e 53 56
e 53 93
e 54 58
e 54 70
e 54 71
e 54 88
e 54 103
e 54 107
e 55 60
e 55 65
e 55 81
e 55 87
e 55 100
e 56 105
e 57 82
e 58 75
e 58 112
e 58 114
e 59 104
e 60 69
e 60 84
e 60 111
e 61 76
e 61 111
e 63 98
e 63 113
e 64 108
e 65 115
e 66 70
e 66 85
e 67 75
e 68 89
e 69 72
e 69 108
e 70 107
e 72 80
e 73 84
e 74 77
e 76 85
e 78 109
e 78 112
e 78 119
e 79 83
e 82 114
e 83 90
e 83 105
e 83 116
e 84 109
e 85 106
e 87 93
e 87 96
e 88 104
e 92 98
e 93 97
e 93 99
e 93 104
e 93 112
e 94 115
e 98 120
e 107 110
e 107 112
e 110 119
